500
    1   415   415
    2   152   152
    3   464   464
    4   460   460
    5   374   374
    6   434   434
    7   395   395
    8   374   374
    9   248   248
   10   379   379
   11   437   437
   12   407   407
   13   429   429
   14   463   463
   15    43    43
   16   145   145
   17   361   361
   18    44    44
   19   378   378
   20    64    64
   21   355   355
   22     9     9
   23   383   383
   24    57    57
   25   216   216
   26   205   205
   27   184   184
   28   472   472
   29    28    28
   30   313   313
   31   128   128
   32   426   426
   33   225   225
   34   488   488
   35   440   440
   36   432   432
   37   389   389
   38   212   212
   39    30    30
   40    39    39
   41    53    53
   42   275   275
   43   223   223
   44   281   281
   45   376   376
   46   426   426
   47   254   254
   48   458   458
   49   440   440
   50   123   123
   51   116   116
   52   384   384
   53   158   158
   54   342   342
   55   255   255
   56   121   121
   57   253   253
   58   252   252
   59   395   395
   60   158   158
   61   493   493
   62   183   183
   63   163   163
   64   134   134
   65   167   167
   66   470   470
   67   313   313
   68   421   421
   69    48    48
   70   301   301
   71   413   413
   72   139   139
   73   224   224
   74   355   355
   75   148   148
   76   457   457
   77   200   200
   78   176   176
   79   434   434
   80   317   317
   81   223   223
   82   410   410
   83   157   157
   84   171   171
   85     6     6
   86   475   475
   87   145   145
   88    33    33
   89   435   435
   90   120   120
   91   294   294
   92   241   241
   93   413   413
   94   406   406
   95   129   129
   96    98    98
   97   495   495
   98   494   494
   99   152   152
  100   171   171
  101   110   110
  102   209   209
  103    96    96
  104   324   324
  105   257   257
  106   137   137
  107   424   424
  108    95    95
  109   488   488
  110   490   490
  111   339   339
  112   296   296
  113   213   213
  114   208   208
  115   154   154
  116   498   498
  117    52    52
  118   374   374
  119   106   106
  120   113   113
  121   416   416
  122   294   294
  123   178   178
  124   376   376
  125   275   275
  126   147   147
  127   474   474
  128    35    35
  129   275   275
  130   292   292
  131   384   384
  132   399   399
  133   296   296
  134   195   195
  135    94    94
  136    55    55
  137   216   216
  138   278   278
  139   329   329
  140   203   203
  141    17    17
  142   283   283
  143    13    13
  144   129   129
  145   454   454
  146   291   291
  147   459   459
  148    67    67
  149   155   155
  150   320   320
  151   152   152
  152   220   220
  153   482   482
  154   152   152
  155   383   383
  156   451   451
  157   340   340
  158   362   362
  159   238   238
  160   497   497
  161    33    33
  162   489   489
  163   349   349
  164   208   208
  165   334   334
  166   227   227
  167   297   297
  168    80    80
  169   193   193
  170   315   315
  171   497   497
  172    86    86
  173   351   351
  174   308   308
  175   376   376
  176   377   377
  177   446   446
  178   422   422
  179   171   171
  180    88    88
  181   444   444
  182    68    68
  183   148   148
  184   255   255
  185   260   260
  186   235   235
  187   387   387
  188    30    30
  189   272   272
  190   238   238
  191    37    37
  192   316   316
  193   445   445
  194   343   343
  195   420   420
  196     2     2
  197   460   460
  198   186   186
  199   144   144
  200   186   186
  201     9     9
  202   422   422
  203   264   264
  204   371   371
  205    82    82
  206   128   128
  207    12    12
  208   419   419
  209   417   417
  210   353   353
  211    90    90
  212   125   125
  213   407   407
  214   220   220
  215    98    98
  216   338   338
  217   298   298
  218   252   252
  219   253   253
  220   238   238
  221   378   378
  222   423   423
  223   139   139
  224   332   332
  225   205   205
  226    47    47
  227   473   473
  228    85    85
  229   381   381
  230   496   496
  231   122   122
  232   195   195
  233   347   347
  234   165   165
  235   377   377
  236   371   371
  237    17    17
  238   108   108
  239   128   128
  240    97    97
  241   403   403
  242    95    95
  243   340   340
  244   272   272
  245   283   283
  246   160   160
  247   202   202
  248   385   385
  249   153   153
  250    57    57
  251   470   470
  252   290   290
  253   247   247
  254   490   490
  255   215   215
  256   268   268
  257   342   342
  258   393   393
  259   239   239
  260   130   130
  261   193   193
  262   228   228
  263    37    37
  264   201   201
  265   114   114
  266   182   182
  267   216   216
  268   224   224
  269   432   432
  270    51    51
  271   438   438
  272   369   369
  273   165   165
  274    74    74
  275   306   306
  276   187   187
  277   101   101
  278    85    85
  279   448   448
  280   363   363
  281    75    75
  282   176   176
  283   444   444
  284   446   446
  285   231   231
  286    75    75
  287     3     3
  288     5     5
  289    37    37
  290   142   142
  291   458   458
  292    16    16
  293   446   446
  294   355   355
  295   147   147
  296   321   321
  297   312   312
  298   478   478
  299   426   426
  300   244   244
  301   477   477
  302   426   426
  303   412   412
  304   360   360
  305    21    21
  306   293   293
  307   444   444
  308    29    29
  309   253   253
  310   338   338
  311   192   192
  312    94    94
  313   122   122
  314   163   163
  315    91    91
  316   335   335
  317    85    85
  318   273   273
  319   229   229
  320   239   239
  321    49    49
  322   428   428
  323   482   482
  324    39    39
  325   378   378
  326   492   492
  327   173   173
  328   483   483
  329    33    33
  330   114   114
  331   206   206
  332   435   435
  333   270   270
  334   297   297
  335   479   479
  336   238   238
  337   229   229
  338   348   348
  339   145   145
  340   315   315
  341   362   362
  342   316   316
  343   105   105
  344   284   284
  345   304   304
  346   120   120
  347   417   417
  348    84    84
  349   402   402
  350   453   453
  351   450   450
  352   446   446
  353   322   322
  354   205   205
  355   477   477
  356   252   252
  357   290   290
  358   236   236
  359   227   227
  360    70    70
  361   135   135
  362   329   329
  363   256   256
  364   339   339
  365    60    60
  366   359   359
  367   168   168
  368   367   367
  369   424   424
  370   399   399
  371   329   329
  372   423   423
  373   102   102
  374   451   451
  375   281   281
  376   146   146
  377   275   275
  378    85    85
  379   113   113
  380   121   121
  381   346   346
  382   414   414
  383   154   154
  384   121   121
  385   344   344
  386   275   275
  387   348   348
  388    58    58
  389   437   437
  390   342   342
  391   405   405
  392    79    79
  393   219   219
  394   218   218
  395   493   493
  396   454   454
  397     2     2
  398   256   256
  399    61    61
  400   202   202
  401   494   494
  402    78    78
  403    52    52
  404   219   219
  405   298   298
  406    78    78
  407   146   146
  408   268   268
  409    90    90
  410    64    64
  411   316   316
  412   246   246
  413   384   384
  414   429   429
  415   273   273
  416   493   493
  417    71    71
  418   216   216
  419   293   293
  420    53    53
  421    76    76
  422   203   203
  423   159   159
  424   495   495
  425   110   110
  426   455   455
  427   472   472
  428   451   451
  429   349   349
  430    21    21
  431   443   443
  432   404   404
  433   336   336
  434   229   229
  435   175   175
  436   235   235
  437    85    85
  438    33    33
  439    18    18
  440   397   397
  441     5     5
  442   375   375
  443   216   216
  444   408   408
  445   121   121
  446   481   481
  447    19    19
  448   398   398
  449   183   183
  450   390   390
  451    35    35
  452   361   361
  453   311   311
  454   202   202
  455   125   125
  456   195   195
  457   467   467
  458   206   206
  459   270   270
  460   186   186
  461    37    37
  462   238   238
  463   254   254
  464   305   305
  465   276   276
  466   452   452
  467   250   250
  468   445   445
  469   133   133
  470   225   225
  471   187   187
  472    38    38
  473   169   169
  474   120   120
  475   365   365
  476   306   306
  477    32    32
  478   163   163
  479    16    16
  480    16    16
  481   181   181
  482   147   147
  483   235   235
  484   475   475
  485   145   145
  486   276   276
  487   491   491
  488   106   106
  489   354   354
  490   489   489
  491   366   366
  492   132   132
  493   165   165
  494   274   274
  495   493   493
  496   369   369
  497   236   236
  498   259   259
  499   432   432
  500   391   391
107865
